nK = 1445;
nT = 6;
nI = 14;
L = 29;
TT = 313;
np = 1;
nc = 3;
b = [20, 69, 54, 68, 66, 42, 53, 51, 69, 41, 47, 26, 65, 43];
d = [50, 124, 137, 118, 99, 88, 126, 135, 122, 70, 95, 145, 147, 93];
m = [1.9, 1.2, 2.1, 2.1, 2.1, 2.4, 1, 2.5, 1.1, 1.7, 2.5, 1.5, 2.2, 2.2];
pt = [0.22, 0.34, 0.24, 0.24, 0.21, 0.32];
st = [9.68, 17.68, 14.4, 9.6, 9.45, 12.8];
arc = {<1, 0, 1, 1, 0, 0, 0, [1, 1, 1, 1, 1, 1]>, <2, 1, 2, 1, 0, 0, 0, [1, 1, 1, 1, 1, 1]>, <3, 2, 3, 1, 0, 0, 0, [1, 1, 1, 1, 1, 1]>, <4, 3, 4, 1, 0, 0, 0, [1, 1, 1, 1, 1, 1]>, <5, 4, 5, 1, 0, 0, 0, [1, 1, 1, 1, 1, 1]>, <6, 5, 6, 1, 0, 0, 0, [1, 1, 1, 1, 1, 1]>, <7, 6, 7, 1, 0, 0, 0, [1, 1, 1, 1, 1, 1]>, <8, 7, 8, 1, 0, 0, 0, [1, 1, 1, 1, 1, 1]>, <9, 8, 9, 1, 0, 0, 0, [1, 1, 1, 1, 1, 1]>, <10, 9, 10, 1, 0, 0, 0, [1, 1, 1, 1, 1, 1]>, <11, 10, 11, 1, 0, 0, 0, [1, 1, 1, 1, 1, 1]>, <12, 11, 12, 1, 0, 0, 0, [1, 1, 1, 1, 1, 1]>, <13, 12, 13, 1, 0, 0, 0, [1, 1, 1, 1, 1, 1]>, <14, 13, 14, 1, 0, 0, 0, [1, 1, 1, 1, 1, 1]>, <15, 14, 15, 1, 0, 0, 0, [1, 1, 1, 1, 1, 1]>, <16, 15, 16, 1, 0, 0, 0, [1, 1, 1, 1, 1, 1]>, <17, 16, 17, 1, 0, 0, 0, [1, 1, 1, 1, 1, 1]>, <18, 17, 18, 1, 0, 0, 0, [1, 1, 1, 1, 1, 1]>, <19, 18, 19, 1, 0, 0, 0, [1, 1, 1, 1, 1, 1]>, <20, 19, 20, 1, 0, 0, 0, [1, 1, 1, 1, 1, 1]>, <21, 20, 21, 1, 0, 0, 0, [1, 1, 1, 1, 1, 1]>, <22, 21, 22, 1, 0, 0, 0, [1, 1, 1, 1, 1, 1]>, <23, 22, 23, 1, 0, 0, 0, [1, 1, 1, 1, 1, 1]>, <24, 23, 24, 1, 0, 0, 0, [1, 1, 1, 1, 1, 1]>, <25, 24, 25, 1, 0, 0, 0, [1, 1, 1, 1, 1, 1]>, <26, 25, 26, 1, 0, 0, 0, [1, 1, 1, 1, 1, 1]>, <27, 26, 27, 1, 0, 0, 0, [1, 1, 1, 1, 1, 1]>, <28, 27, 28, 1, 0, 0, 0, [1, 1, 1, 1, 1, 1]>, <29, 28, 29, 1, 0, 0, 0, [1, 1, 1, 1, 1, 1]>, <30, 0, 12, 12, 1, 0, 0, [1, 0, 0, 0, 0, 1]>, <31, 1, 13, 12, 1, 0, 0, [1, 0, 0, 0, 0, 1]>, <32, 2, 14, 12, 1, 0, 0, [1, 0, 0, 0, 0, 1]>, <33, 3, 15, 12, 1, 0, 0, [1, 0, 0, 0, 0, 1]>, <34, 4, 16, 12, 1, 0, 0, [1, 0, 0, 0, 0, 1]>, <35, 5, 17, 12, 1, 0, 0, [1, 0, 0, 0, 0, 1]>, <36, 8, 20, 12, 1, 0, 0, [1, 0, 0, 0, 0, 1]>, <37, 9, 21, 12, 1, 0, 0, [1, 0, 0, 0, 0, 1]>, <38, 10, 22, 12, 1, 0, 0, [1, 0, 0, 0, 0, 1]>, <39, 11, 23, 12, 1, 0, 0, [1, 0, 0, 0, 0, 1]>, <40, 12, 24, 12, 1, 0, 0, [1, 0, 0, 0, 0, 1]>, <41, 13, 25, 12, 1, 0, 0, [1, 0, 0, 0, 0, 1]>, <42, 14, 26, 12, 1, 0, 0, [1, 0, 0, 0, 0, 1]>, <43, 15, 27, 12, 1, 0, 0, [1, 0, 0, 0, 0, 1]>, <44, 16, 28, 12, 1, 0, 0, [1, 0, 0, 0, 0, 1]>, <45, 17, 29, 12, 1, 0, 0, [1, 0, 0, 0, 0, 1]>, <46, 2, 12, 10, 2, 0, 0, [1, 0, 0, 0, 0, 1]>, <47, 3, 13, 10, 2, 0, 0, [1, 0, 0, 0, 0, 1]>, <48, 4, 14, 10, 2, 0, 0, [1, 0, 0, 0, 0, 1]>, <49, 5, 15, 10, 2, 0, 0, [1, 0, 0, 0, 0, 1]>, <50, 10, 20, 10, 2, 0, 0, [1, 0, 0, 0, 0, 1]>, <51, 11, 21, 10, 2, 0, 0, [1, 0, 0, 0, 0, 1]>, <52, 12, 22, 10, 2, 0, 0, [1, 0, 0, 0, 0, 1]>, <53, 14, 24, 10, 2, 0, 0, [1, 0, 0, 0, 0, 1]>, <54, 15, 25, 10, 2, 0, 0, [1, 0, 0, 0, 0, 1]>, <55, 16, 26, 10, 2, 0, 0, [1, 0, 0, 0, 0, 1]>, <56, 17, 27, 10, 2, 0, 0, [1, 0, 0, 0, 0, 1]>, <57, 18, 28, 10, 2, 0, 0, [1, 0, 0, 0, 0, 1]>, <58, 19, 29, 10, 2, 0, 0, [1, 0, 0, 0, 0, 1]>, <59, 0, 15, 15, 3, 1, 0, [0, 0, 1, 1, 0, 0]>, <60, 1, 16, 15, 3, 1, 0, [0, 0, 1, 1, 0, 0]>, <61, 2, 17, 15, 3, 1, 0, [0, 0, 1, 1, 0, 0]>, <62, 3, 18, 15, 3, 1, 0, [0, 0, 1, 1, 0, 0]>, <63, 4, 19, 15, 3, 1, 0, [0, 0, 1, 1, 0, 0]>, <64, 5, 20, 15, 3, 1, 0, [0, 0, 1, 1, 0, 0]>, <65, 6, 21, 15, 3, 1, 0, [0, 0, 1, 1, 0, 0]>, <66, 7, 22, 15, 3, 1, 0, [0, 0, 1, 1, 0, 0]>, <67, 8, 23, 15, 3, 1, 0, [0, 0, 1, 1, 0, 0]>, <68, 9, 24, 15, 3, 1, 0, [0, 0, 1, 1, 0, 0]>, <69, 10, 25, 15, 3, 1, 0, [0, 0, 1, 1, 0, 0]>, <70, 11, 26, 15, 3, 1, 0, [0, 0, 1, 1, 0, 0]>, <71, 12, 27, 15, 3, 1, 0, [0, 0, 1, 1, 0, 0]>, <72, 13, 28, 15, 3, 1, 0, [0, 0, 1, 1, 0, 0]>, <73, 14, 29, 15, 3, 1, 0, [0, 0, 1, 1, 0, 0]>, <74, 1, 12, 11, 4, 0, 0, [1, 0, 0, 0, 0, 1]>, <75, 2, 13, 11, 4, 0, 0, [1, 0, 0, 0, 0, 1]>, <76, 3, 14, 11, 4, 0, 0, [1, 0, 0, 0, 0, 1]>, <77, 4, 15, 11, 4, 0, 0, [1, 0, 0, 0, 0, 1]>, <78, 5, 16, 11, 4, 0, 0, [1, 0, 0, 0, 0, 1]>, <79, 9, 20, 11, 4, 0, 0, [1, 0, 0, 0, 0, 1]>, <80, 10, 21, 11, 4, 0, 0, [1, 0, 0, 0, 0, 1]>, <81, 11, 22, 11, 4, 0, 0, [1, 0, 0, 0, 0, 1]>, <82, 12, 23, 11, 4, 0, 0, [1, 0, 0, 0, 0, 1]>, <83, 13, 24, 11, 4, 0, 0, [1, 0, 0, 0, 0, 1]>, <84, 14, 25, 11, 4, 0, 0, [1, 0, 0, 0, 0, 1]>, <85, 15, 26, 11, 4, 0, 0, [1, 0, 0, 0, 0, 1]>, <86, 16, 27, 11, 4, 0, 0, [1, 0, 0, 0, 0, 1]>, <87, 17, 28, 11, 4, 0, 0, [1, 0, 0, 0, 0, 1]>, <88, 18, 29, 11, 4, 0, 0, [1, 0, 0, 0, 0, 1]>, <89, 0, 14, 14, 5, 0, 1, [0, 0, 1, 1, 0, 0]>, <90, 1, 15, 14, 5, 0, 1, [0, 0, 1, 1, 0, 0]>, <91, 2, 16, 14, 5, 0, 1, [0, 0, 1, 1, 0, 0]>, <92, 3, 17, 14, 5, 0, 1, [0, 0, 1, 1, 0, 0]>, <93, 4, 18, 14, 5, 0, 1, [0, 0, 1, 1, 0, 0]>, <94, 5, 19, 14, 5, 0, 1, [0, 0, 1, 1, 0, 0]>, <95, 6, 20, 14, 5, 0, 1, [0, 0, 1, 1, 0, 0]>, <96, 7, 21, 14, 5, 0, 1, [0, 0, 1, 1, 0, 0]>, <97, 8, 22, 14, 5, 0, 1, [0, 0, 1, 1, 0, 0]>, <98, 9, 23, 14, 5, 0, 1, [0, 0, 1, 1, 0, 0]>, <99, 10, 24, 14, 5, 0, 1, [0, 0, 1, 1, 0, 0]>, <100, 11, 25, 14, 5, 0, 1, [0, 0, 1, 1, 0, 0]>, <101, 12, 26, 14, 5, 0, 1, [0, 0, 1, 1, 0, 0]>, <102, 13, 27, 14, 5, 0, 1, [0, 0, 1, 1, 0, 0]>, <103, 14, 28, 14, 5, 0, 1, [0, 0, 1, 1, 0, 0]>, <104, 15, 29, 14, 5, 0, 1, [0, 0, 1, 1, 0, 0]>, <105, 0, 14, 14, 6, 1, 0, [0, 0, 0, 0, 1, 1]>, <106, 1, 15, 14, 6, 1, 0, [0, 0, 0, 0, 1, 1]>, <107, 2, 16, 14, 6, 1, 0, [0, 0, 0, 0, 1, 1]>, <108, 3, 17, 14, 6, 1, 0, [0, 0, 0, 0, 1, 1]>, <109, 4, 18, 14, 6, 1, 0, [0, 0, 0, 0, 1, 1]>, <110, 5, 19, 14, 6, 1, 0, [0, 0, 0, 0, 1, 1]>, <111, 6, 20, 14, 6, 1, 0, [0, 0, 0, 0, 1, 1]>, <112, 7, 21, 14, 6, 1, 0, [0, 0, 0, 0, 1, 1]>, <113, 8, 22, 14, 6, 1, 0, [0, 0, 0, 0, 1, 1]>, <114, 9, 23, 14, 6, 1, 0, [0, 0, 0, 0, 1, 1]>, <115, 10, 24, 14, 6, 1, 0, [0, 0, 0, 0, 1, 1]>, <116, 11, 25, 14, 6, 1, 0, [0, 0, 0, 0, 1, 1]>, <117, 12, 26, 14, 6, 1, 0, [0, 0, 0, 0, 1, 1]>, <118, 13, 27, 14, 6, 1, 0, [0, 0, 0, 0, 1, 1]>, <119, 14, 28, 14, 6, 1, 0, [0, 0, 0, 0, 1, 1]>, <120, 15, 29, 14, 6, 1, 0, [0, 0, 0, 0, 1, 1]>, <121, 0, 13, 13, 7, 0, 0, [0, 1, 1, 0, 0, 0]>, <122, 1, 14, 13, 7, 0, 0, [0, 1, 1, 0, 0, 0]>, <123, 2, 15, 13, 7, 0, 0, [0, 1, 1, 0, 0, 0]>, <124, 3, 16, 13, 7, 0, 0, [0, 1, 1, 0, 0, 0]>, <125, 4, 17, 13, 7, 0, 0, [0, 1, 1, 0, 0, 0]>, <126, 5, 18, 13, 7, 0, 0, [0, 1, 1, 0, 0, 0]>, <127, 7, 20, 13, 7, 0, 0, [0, 1, 1, 0, 0, 0]>, <128, 8, 21, 13, 7, 0, 0, [0, 1, 1, 0, 0, 0]>, <129, 9, 22, 13, 7, 0, 0, [0, 1, 1, 0, 0, 0]>, <130, 10, 23, 13, 7, 0, 0, [0, 1, 1, 0, 0, 0]>, <131, 11, 24, 13, 7, 0, 0, [0, 1, 1, 0, 0, 0]>, <132, 12, 25, 13, 7, 0, 0, [0, 1, 1, 0, 0, 0]>, <133, 13, 26, 13, 7, 0, 0, [0, 1, 1, 0, 0, 0]>, <134, 14, 27, 13, 7, 0, 0, [0, 1, 1, 0, 0, 0]>, <135, 15, 28, 13, 7, 0, 0, [0, 1, 1, 0, 0, 0]>, <136, 16, 29, 13, 7, 0, 0, [0, 1, 1, 0, 0, 0]>, <137, 0, 12, 12, 8, 0, 0, [1, 0, 0, 0, 0, 1]>, <138, 1, 13, 12, 8, 0, 0, [1, 0, 0, 0, 0, 1]>, <139, 2, 14, 12, 8, 0, 0, [1, 0, 0, 0, 0, 1]>, <140, 3, 15, 12, 8, 0, 0, [1, 0, 0, 0, 0, 1]>, <141, 4, 16, 12, 8, 0, 0, [1, 0, 0, 0, 0, 1]>, <142, 5, 17, 12, 8, 0, 0, [1, 0, 0, 0, 0, 1]>, <143, 8, 20, 12, 8, 0, 0, [1, 0, 0, 0, 0, 1]>, <144, 9, 21, 12, 8, 0, 0, [1, 0, 0, 0, 0, 1]>, <145, 10, 22, 12, 8, 0, 0, [1, 0, 0, 0, 0, 1]>, <146, 11, 23, 12, 8, 0, 0, [1, 0, 0, 0, 0, 1]>, <147, 12, 24, 12, 8, 0, 0, [1, 0, 0, 0, 0, 1]>, <148, 13, 25, 12, 8, 0, 0, [1, 0, 0, 0, 0, 1]>, <149, 14, 26, 12, 8, 0, 0, [1, 0, 0, 0, 0, 1]>, <150, 15, 27, 12, 8, 0, 0, [1, 0, 0, 0, 0, 1]>, <151, 16, 28, 12, 8, 0, 0, [1, 0, 0, 0, 0, 1]>, <152, 17, 29, 12, 8, 0, 0, [1, 0, 0, 0, 0, 1]>, <153, 0, 12, 12, 9, 0, 0, [0, 0, 0, 1, 1, 0]>, <154, 1, 13, 12, 9, 0, 0, [0, 0, 0, 1, 1, 0]>, <155, 2, 14, 12, 9, 0, 0, [0, 0, 0, 1, 1, 0]>, <156, 3, 15, 12, 9, 0, 0, [0, 0, 0, 1, 1, 0]>, <157, 4, 16, 12, 9, 0, 0, [0, 0, 0, 1, 1, 0]>, <158, 5, 17, 12, 9, 0, 0, [0, 0, 0, 1, 1, 0]>, <159, 8, 20, 12, 9, 0, 0, [0, 0, 0, 1, 1, 0]>, <160, 9, 21, 12, 9, 0, 0, [0, 0, 0, 1, 1, 0]>, <161, 10, 22, 12, 9, 0, 0, [0, 0, 0, 1, 1, 0]>, <162, 11, 23, 12, 9, 0, 0, [0, 0, 0, 1, 1, 0]>, <163, 12, 24, 12, 9, 0, 0, [0, 0, 0, 1, 1, 0]>, <164, 13, 25, 12, 9, 0, 0, [0, 0, 0, 1, 1, 0]>, <165, 14, 26, 12, 9, 0, 0, [0, 0, 0, 1, 1, 0]>, <166, 15, 27, 12, 9, 0, 0, [0, 0, 0, 1, 1, 0]>, <167, 16, 28, 12, 9, 0, 0, [0, 0, 0, 1, 1, 0]>, <168, 17, 29, 12, 9, 0, 0, [0, 0, 0, 1, 1, 0]>, <169, 1, 12, 11, 10, 0, 1, [0, 0, 1, 1, 0, 0]>, <170, 2, 13, 11, 10, 0, 1, [0, 0, 1, 1, 0, 0]>, <171, 3, 14, 11, 10, 0, 1, [0, 0, 1, 1, 0, 0]>, <172, 4, 15, 11, 10, 0, 1, [0, 0, 1, 1, 0, 0]>, <173, 5, 16, 11, 10, 0, 1, [0, 0, 1, 1, 0, 0]>, <174, 9, 20, 11, 10, 0, 1, [0, 0, 1, 1, 0, 0]>, <175, 10, 21, 11, 10, 0, 1, [0, 0, 1, 1, 0, 0]>, <176, 11, 22, 11, 10, 0, 1, [0, 0, 1, 1, 0, 0]>, <177, 12, 23, 11, 10, 0, 1, [0, 0, 1, 1, 0, 0]>, <178, 13, 24, 11, 10, 0, 1, [0, 0, 1, 1, 0, 0]>, <179, 14, 25, 11, 10, 0, 1, [0, 0, 1, 1, 0, 0]>, <180, 15, 26, 11, 10, 0, 1, [0, 0, 1, 1, 0, 0]>, <181, 16, 27, 11, 10, 0, 1, [0, 0, 1, 1, 0, 0]>, <182, 17, 28, 11, 10, 0, 1, [0, 0, 1, 1, 0, 0]>, <183, 18, 29, 11, 10, 0, 1, [0, 0, 1, 1, 0, 0]>, <184, 1, 12, 11, 11, 0, 1, [0, 0, 1, 1, 0, 0]>, <185, 2, 13, 11, 11, 0, 1, [0, 0, 1, 1, 0, 0]>, <186, 3, 14, 11, 11, 0, 1, [0, 0, 1, 1, 0, 0]>, <187, 4, 15, 11, 11, 0, 1, [0, 0, 1, 1, 0, 0]>, <188, 5, 16, 11, 11, 0, 1, [0, 0, 1, 1, 0, 0]>, <189, 9, 20, 11, 11, 0, 1, [0, 0, 1, 1, 0, 0]>, <190, 10, 21, 11, 11, 0, 1, [0, 0, 1, 1, 0, 0]>, <191, 11, 22, 11, 11, 0, 1, [0, 0, 1, 1, 0, 0]>, <192, 12, 23, 11, 11, 0, 1, [0, 0, 1, 1, 0, 0]>, <193, 13, 24, 11, 11, 0, 1, [0, 0, 1, 1, 0, 0]>, <194, 14, 25, 11, 11, 0, 1, [0, 0, 1, 1, 0, 0]>, <195, 15, 26, 11, 11, 0, 1, [0, 0, 1, 1, 0, 0]>, <196, 16, 27, 11, 11, 0, 1, [0, 0, 1, 1, 0, 0]>, <197, 17, 28, 11, 11, 0, 1, [0, 0, 1, 1, 0, 0]>, <198, 18, 29, 11, 11, 0, 1, [0, 0, 1, 1, 0, 0]>, <199, 0, 13, 13, 12, 0, 0, [0, 1, 1, 0, 0, 0]>, <200, 1, 14, 13, 12, 0, 0, [0, 1, 1, 0, 0, 0]>, <201, 2, 15, 13, 12, 0, 0, [0, 1, 1, 0, 0, 0]>, <202, 3, 16, 13, 12, 0, 0, [0, 1, 1, 0, 0, 0]>, <203, 4, 17, 13, 12, 0, 0, [0, 1, 1, 0, 0, 0]>, <204, 5, 18, 13, 12, 0, 0, [0, 1, 1, 0, 0, 0]>, <205, 7, 20, 13, 12, 0, 0, [0, 1, 1, 0, 0, 0]>, <206, 8, 21, 13, 12, 0, 0, [0, 1, 1, 0, 0, 0]>, <207, 9, 22, 13, 12, 0, 0, [0, 1, 1, 0, 0, 0]>, <208, 10, 23, 13, 12, 0, 0, [0, 1, 1, 0, 0, 0]>, <209, 11, 24, 13, 12, 0, 0, [0, 1, 1, 0, 0, 0]>, <210, 12, 25, 13, 12, 0, 0, [0, 1, 1, 0, 0, 0]>, <211, 13, 26, 13, 12, 0, 0, [0, 1, 1, 0, 0, 0]>, <212, 14, 27, 13, 12, 0, 0, [0, 1, 1, 0, 0, 0]>, <213, 15, 28, 13, 12, 0, 0, [0, 1, 1, 0, 0, 0]>, <214, 16, 29, 13, 12, 0, 0, [0, 1, 1, 0, 0, 0]>, <215, 1, 12, 11, 13, 0, 0, [1, 1, 0, 0, 0, 0]>, <216, 2, 13, 11, 13, 0, 0, [1, 1, 0, 0, 0, 0]>, <217, 3, 14, 11, 13, 0, 0, [1, 1, 0, 0, 0, 0]>, <218, 4, 15, 11, 13, 0, 0, [1, 1, 0, 0, 0, 0]>, <219, 5, 16, 11, 13, 0, 0, [1, 1, 0, 0, 0, 0]>, <220, 9, 20, 11, 13, 0, 0, [1, 1, 0, 0, 0, 0]>, <221, 10, 21, 11, 13, 0, 0, [1, 1, 0, 0, 0, 0]>, <222, 11, 22, 11, 13, 0, 0, [1, 1, 0, 0, 0, 0]>, <223, 12, 23, 11, 13, 0, 0, [1, 1, 0, 0, 0, 0]>, <224, 13, 24, 11, 13, 0, 0, [1, 1, 0, 0, 0, 0]>, <225, 14, 25, 11, 13, 0, 0, [1, 1, 0, 0, 0, 0]>, <226, 15, 26, 11, 13, 0, 0, [1, 1, 0, 0, 0, 0]>, <227, 16, 27, 11, 13, 0, 0, [1, 1, 0, 0, 0, 0]>, <228, 17, 28, 11, 13, 0, 0, [1, 1, 0, 0, 0, 0]>, <229, 18, 29, 11, 13, 0, 0, [1, 1, 0, 0, 0, 0]>, <230, 0, 12, 12, 14, 0, 0, [1, 0, 0, 0, 0, 1]>, <231, 1, 13, 12, 14, 0, 0, [1, 0, 0, 0, 0, 1]>, <232, 2, 14, 12, 14, 0, 0, [1, 0, 0, 0, 0, 1]>, <233, 3, 15, 12, 14, 0, 0, [1, 0, 0, 0, 0, 1]>, <234, 4, 16, 12, 14, 0, 0, [1, 0, 0, 0, 0, 1]>, <235, 5, 17, 12, 14, 0, 0, [1, 0, 0, 0, 0, 1]>, <236, 8, 20, 12, 14, 0, 0, [1, 0, 0, 0, 0, 1]>, <237, 9, 21, 12, 14, 0, 0, [1, 0, 0, 0, 0, 1]>, <238, 10, 22, 12, 14, 0, 0, [1, 0, 0, 0, 0, 1]>, <239, 11, 23, 12, 14, 0, 0, [1, 0, 0, 0, 0, 1]>, <240, 12, 24, 12, 14, 0, 0, [1, 0, 0, 0, 0, 1]>, <241, 13, 25, 12, 14, 0, 0, [1, 0, 0, 0, 0, 1]>, <242, 14, 26, 12, 14, 0, 0, [1, 0, 0, 0, 0, 1]>, <243, 15, 27, 12, 14, 0, 0, [1, 0, 0, 0, 0, 1]>, <244, 16, 28, 12, 14, 0, 0, [1, 0, 0, 0, 0, 1]>, <245, 17, 29, 12, 14, 0, 0, [1, 0, 0, 0, 0, 1]>};
